N = 8;
Capacity = 15;
Demand = [8, 5, 6, 6, 3, 4, 5, 3];
Distance = [|
  0, 36, 48, 46, 46, 55, 48, 18, 19
| 36, 0, 82, 66, 16, 69, 69, 32, 45
| 48, 82, 0, 39, 93, 51, 38, 63, 55
| 46, 66, 39, 0, 81, 13, 3, 64, 63
| 46, 16, 93, 81, 0, 84, 84, 36, 49
| 55, 69, 51, 13, 84, 0, 13, 72, 73
| 48, 69, 38, 3, 84, 13, 0, 66, 65
| 18, 32, 63, 64, 36, 72, 66, 0, 13
| 19, 45, 55, 63, 49, 73, 65, 13, 0
|];
